% File represents an instance of a Composite Structure problem to be solved by a CP framework
% Created on 2025-03-26 10:41:47.376
T = 56;
n = 36;
m = 60;
edges = [(1, 2),
(8, 7),
(14, 13),
(20, 19),
(26, 25),
(32, 31),
(3, 2),
(8, 9),
(14, 15),
(20, 21),
(26, 27),
(32, 33),
(3, 4),
(9, 10),
(15, 16),
(21, 22),
(27, 28),
(33, 34),
(4, 5),
(10, 11),
(17, 16),
(23, 22),
(28, 29),
(35, 34),
(6, 5),
(12, 11),
(18, 17),
(24, 23),
(30, 29),
(35, 36),
(1, 7),
(7, 13),
(19, 13),
(19, 25),
(25, 31),
(8, 2),
(8, 14),
(20, 14),
(20, 26),
(26, 32),
(3, 9),
(9, 15),
(21, 15),
(21, 27),
(27, 33),
(4, 10),
(10, 16),
(22, 16),
(28, 22),
(28, 34),
(5, 11),
(17, 11),
(23, 17),
(23, 29),
(35, 29),
(6, 12),
(18, 12),
(24, 18),
(24, 30),
(30, 36)];
counts = [|12, 20, 12, 12,
|12, 20, 12, 6,
|12, 22, 12, 8,
|12, 20, 12, 6,
|12, 18, 12, 2,
|14, 18, 14, 2,
|12, 20, 12, 8,
|12, 20, 12, 10,
|12, 18, 12, 8,
|12, 18, 12, 2,
|12, 14, 12, 2,
|12, 16, 12, 2,
|12, 20, 12, 4,
|12, 20, 12, 8,
|10, 18, 10, 8,
|10, 18, 10, 2,
|12, 18, 12, 2,
|12, 20, 12, 2,
|12, 24, 12, 4,
|12, 24, 12, 8,
|10, 22, 10, 8,
|10, 22, 10, 2,
|12, 22, 12, 2,
|12, 22, 12, 6,
|12, 22, 12, 4,
|12, 22, 12, 8,
|10, 22, 10, 6,
|10, 22, 10, 4,
|10, 20, 10, 2,
|12, 20, 12, 4,
|10, 22, 10, 4,
|10, 22, 10, 6,
|8, 20, 8, 6,
|8, 20, 8, 4,
|10, 20, 10, 6,
|10, 18, 10, 4|];
